c ! encoding i-pc 250
p cnf 716 1603
-251 0
251 -252 0
251 -253 0
251 -254 0
251 -255 0
131 -257 0
256 -257 0
257 -258 0
103 -258 0
52 -260 0
259 -260 0
260 -261 0
-103 -261 0
258 261 -262 0
59 -263 0
263 -265 0
264 -265 0
265 -266 0
152 -266 0
267 0
268 -269 0
269 -270 0
128 -270 0
59 -271 0
-128 -271 0
270 271 -272 0
272 -273 0
91 -273 0
273 -274 0
-152 -274 0
266 274 -275 0
240 -277 0
276 -277 0
277 -278 0
28 -278 0
276 -279 0
279 -280 0
240 -280 0
26 -281 0
-240 -281 0
280 281 -282 0
282 -283 0
-28 -283 0
278 283 -284 0
275 -285 0
284 -285 0
285 -287 0
286 -287 0
287 -288 0
204 -288 0
264 -289 0
289 -290 0
152 -290 0
91 -291 0
-152 -291 0
290 291 -292 0
59 -293 0
157 -293 0
240 -293 0
276 -295 0
294 -295 0
292 -296 0
293 -296 0
295 -296 0
296 -297 0
-204 -297 0
288 297 -298 0
56 -299 0
63 -299 0
300 -301 0
301 -302 0
-63 -302 0
299 302 -303 0
303 -304 0
189 -304 0
300 -305 0
305 -306 0
-189 -306 0
304 306 -307 0
307 -308 0
308 -311 0
309 -311 0
310 -311 0
311 -312 0
122 -312 0
-74 -313 0
-195 -313 0
313 -314 0
300 -314 0
314 -316 0
315 -316 0
316 -317 0
-122 -317 0
312 317 -318 0
45 -319 0
319 -321 0
320 -321 0
321 -322 0
155 -322 0
320 -324 0
323 -324 0
324 -325 0
166 -325 0
-45 -326 0
208 -326 0
326 -327 0
-166 -327 0
325 327 -328 0
328 -329 0
-155 -329 0
322 329 -330 0
6 -331 0
7 -331 0
10 -331 0
22 -331 0
-27 -331 0
34 -331 0
37 -331 0
-40 -331 0
-43 -331 0
-46 -331 0
47 -331 0
-48 -331 0
-69 -331 0
73 -331 0
83 -331 0
-86 -331 0
87 -331 0
95 -331 0
102 -331 0
-105 -331 0
-110 -331 0
115 -331 0
125 -331 0
-130 -331 0
-133 -331 0
-137 -331 0
-140 -331 0
141 -331 0
-145 -331 0
146 -331 0
-156 -331 0
159 -331 0
164 -331 0
168 -331 0
176 -331 0
177 -331 0
187 -331 0
191 -331 0
-192 -331 0
194 -331 0
197 -331 0
200 -331 0
-203 -331 0
211 -331 0
-212 -331 0
215 -331 0
225 -331 0
229 -331 0
-230 -331 0
235 -331 0
236 -331 0
238 -331 0
243 -331 0
-244 -331 0
248 -331 0
-249 -331 0
332 -342 0
333 -342 0
334 -342 0
335 -342 0
336 -342 0
337 -342 0
338 -342 0
339 -342 0
340 -342 0
341 -342 0
262 -343 0
298 -343 0
318 -343 0
330 -343 0
331 -343 0
342 -343 0
343 -344 0
-167 -344 0
255 344 -345 0
345 -347 0
346 -347 0
347 -348 0
72 -348 0
251 -349 0
348 349 -350 0
350 -351 0
251 -352 0
351 352 -353 0
55 -354 0
353 -355 0
354 -355 0
355 -356 0
251 -357 0
356 357 -358 0
64 -359 0
161 -359 0
358 -360 0
359 -360 0
360 -361 0
254 361 -362 0
-93 -363 0
-109 -363 0
163 -363 0
362 -364 0
363 -364 0
364 -365 0
132 -365 0
251 -366 0
365 366 -367 0
367 -368 0
251 -369 0
-53 -371 0
-135 -371 0
371 -372 0
251 -376 0
251 -379 0
223 -381 0
251 -382 0
251 -383 0
251 -384 0
-37 -385 0
208 -385 0
386 -387 0
387 -388 0
-208 -388 0
385 388 -389 0
390 -391 0
391 -392 0
211 -392 0
225 -393 0
-211 -393 0
392 393 -394 0
394 -396 0
395 -396 0
396 -397 0
185 -397 0
211 -398 0
212 -398 0
398 -399 0
390 -399 0
399 -400 0
-185 -400 0
397 400 -401 0
74 -402 0
51 -402 0
310 -403 0
403 -404 0
-51 -404 0
402 404 -405 0
405 -406 0
-108 -406 0
406 -407 0
236 -407 0
-51 -408 0
310 -408 0
408 -409 0
335 -409 0
409 -410 0
-236 -410 0
407 410 -411 0
6 -412 0
-7 -412 0
10 -412 0
-26 -412 0
28 -412 0
-32 -412 0
-40 -412 0
-43 -412 0
45 -412 0
-52 -412 0
58 -412 0
59 -412 0
-71 -412 0
-80 -412 0
90 -412 0
95 -412 0
-98 -412 0
-102 -412 0
-105 -412 0
-110 -412 0
-115 -412 0
-117 -412 0
122 -412 0
-125 -412 0
-131 -412 0
-133 -412 0
-145 -412 0
146 -412 0
152 -412 0
-155 -412 0
-157 -412 0
-161 -412 0
-168 -412 0
-173 -412 0
176 -412 0
194 -412 0
-195 -412 0
-197 -412 0
204 -412 0
240 -412 0
243 -412 0
244 -412 0
-249 -412 0
-250 -412 0
413 -416 0
332 -416 0
300 -416 0
264 -416 0
414 -416 0
415 -416 0
338 -416 0
389 -417 0
401 -417 0
411 -417 0
412 -417 0
416 -417 0
417 -418 0
384 418 -419 0
419 -421 0
420 -421 0
421 -422 0
251 -423 0
422 423 -424 0
424 -425 0
251 -426 0
425 426 -427 0
427 -428 0
383 428 -429 0
429 -430 0
382 430 -431 0
431 -432 0
251 -433 0
251 -434 0
45 -435 0
248 -435 0
435 -436 0
155 -436 0
323 -437 0
437 -438 0
-155 -438 0
436 438 -439 0
440 -441 0
441 -442 0
125 -442 0
105 -443 0
-125 -443 0
442 443 -444 0
445 -446 0
446 -447 0
40 -447 0
6 -448 0
-40 -448 0
447 448 -449 0
444 -450 0
449 -450 0
450 -451 0
264 -451 0
451 -452 0
152 -452 0
91 -453 0
6 -453 0
264 -454 0
454 -455 0
-6 -455 0
453 455 -456 0
456 -457 0
40 -457 0
6 -458 0
91 -458 0
458 -459 0
-40 -459 0
457 459 -460 0
460 -461 0
125 -461 0
440 -461 0
461 -462 0
-152 -462 0
452 462 -463 0
463 -464 0
395 -464 0
464 -465 0
102 -465 0
292 -466 0
440 -466 0
466 -467 0
125 -467 0
105 -468 0
152 -468 0
468 -469 0
264 -469 0
469 -470 0
-125 -470 0
467 470 -471 0
6 -472 0
212 -472 0
471 -474 0
472 -474 0
473 -474 0
474 -475 0
-102 -475 0
465 475 -476 0
439 -477 0
476 -477 0
-133 -477 0
477 -478 0
309 -478 0
478 -479 0
168 -479 0
480 -481 0
481 -482 0
248 -482 0
-133 -483 0
-248 -483 0
482 483 -484 0
484 -485 0
45 -485 0
485 -486 0
155 -486 0
480 -487 0
487 -488 0
323 -488 0
488 -489 0
-155 -489 0
486 489 -490 0
6 -491 0
40 -491 0
-102 -491 0
-195 -491 0
212 -491 0
490 -492 0
471 -492 0
491 -492 0
492 -493 0
-168 -493 0
479 493 -494 0
495 -496 0
496 -497 0
240 -497 0
204 -498 0
-240 -498 0
497 498 -499 0
499 -500 0
197 -500 0
204 -502 0
501 -502 0
502 -503 0
-197 -503 0
500 503 -504 0
505 -506 0
506 -507 0
176 -507 0
115 -508 0
-176 -508 0
507 508 -509 0
510 -511 0
511 -512 0
10 -512 0
-194 -513 0
-10 -513 0
512 513 -514 0
514 -515 0
244 -515 0
-10 -516 0
-194 -516 0
516 -517 0
-244 -517 0
515 517 -518 0
7 -519 0
249 -519 0
520 -521 0
521 -522 0
-249 -522 0
519 522 -523 0
504 -524 0
509 -524 0
518 -524 0
523 -524 0
524 -525 0
146 -525 0
495 -526 0
526 -527 0
197 -527 0
204 -528 0
-197 -528 0
527 528 -529 0
7 -530 0
240 -530 0
529 -531 0
530 -531 0
531 -532 0
249 -532 0
504 -533 0
520 -533 0
533 -534 0
-249 -534 0
532 534 -535 0
-10 -536 0
115 -536 0
-176 -536 0
-194 -536 0
-244 -536 0
535 -537 0
536 -537 0
537 -538 0
-146 -538 0
525 538 -539 0
43 -540 0
95 -540 0
110 -540 0
414 -542 0
541 -542 0
494 -543 0
539 -543 0
540 -543 0
542 -543 0
543 -545 0
544 -545 0
545 -546 0
145 -546 0
547 -548 0
548 -549 0
212 -549 0
102 -550 0
-212 -550 0
549 550 -551 0
414 -552 0
440 -552 0
552 -553 0
95 -553 0
105 -554 0
414 -554 0
554 -555 0
-95 -555 0
553 555 -556 0
556 -557 0
292 -557 0
557 -558 0
125 -558 0
414 -560 0
559 -560 0
264 -560 0
468 -561 0
560 -561 0
561 -562 0
-125 -562 0
558 562 -563 0
551 -564 0
563 -564 0
564 -565 0
473 -565 0
565 -566 0
6 -566 0
440 -568 0
567 -568 0
568 -569 0
125 -569 0
468 -570 0
-125 -570 0
569 570 -571 0
571 -572 0
414 -572 0
572 -573 0
95 -573 0
567 -574 0
574 -575 0
125 -575 0
152 -576 0
-125 -576 0
575 576 -577 0
577 -578 0
105 -578 0
414 -578 0
578 -579 0
-95 -579 0
573 579 -580 0
40 -581 0
102 -581 0
580 -582 0
581 -582 0
395 -582 0
582 -583 0
264 -583 0
583 -584 0
-6 -584 0
566 584 -585 0
439 -586 0
585 -586 0
-133 -586 0
586 -587 0
309 -587 0
587 -588 0
168 -588 0
490 -589 0
563 -589 0
491 -589 0
589 -590 0
-168 -590 0
588 590 -591 0
7 -592 0
243 -592 0
592 -593 0
249 -593 0
243 -594 0
7 -594 0
541 -595 0
595 -596 0
-7 -596 0
594 596 -597 0
597 -598 0
-249 -598 0
593 598 -599 0
504 -600 0
599 -600 0
509 -600 0
518 -600 0
600 -601 0
146 -601 0
599 -602 0
529 -602 0
602 -603 0
240 -603 0
204 -604 0
-249 -604 0
597 -606 0
604 -606 0
605 -606 0
606 -607 0
-240 -607 0
603 607 -608 0
608 -609 0
536 -609 0
609 -610 0
-146 -610 0
601 610 -611 0
591 -612 0
611 -612 0
612 -613 0
110 -613 0
614 -615 0
615 -616 0
244 -616 0
-10 -617 0
-244 -617 0
616 617 -618 0
509 -619 0
618 -619 0
523 -619 0
619 -620 0
501 -620 0
620 -621 0
146 -621 0
530 -622 0
249 -622 0
520 -623 0
501 -623 0
623 -624 0
-249 -624 0
622 624 -625 0
-10 -626 0
115 -626 0
-176 -626 0
-244 -626 0
625 -627 0
626 -627 0
627 -628 0
-146 -628 0
621 628 -629 0
6 -630 0
-40 -630 0
-133 -630 0
168 -630 0
-197 -630 0
204 -630 0
243 -630 0
629 -631 0
563 -631 0
439 -631 0
551 -631 0
630 -631 0
309 -631 0
631 -632 0
510 -632 0
632 -633 0
-110 -633 0
613 633 -634 0
-43 -635 0
-161 -635 0
634 -636 0
635 -636 0
636 -637 0
-145 -637 0
546 637 -638 0
638 -639 0
219 -639 0
639 -640 0
147 -640 0
547 -641 0
641 -642 0
6 -642 0
102 -643 0
-6 -643 0
642 643 -644 0
644 -645 0
40 -645 0
6 -646 0
547 -646 0
646 -647 0
-40 -647 0
645 647 -648 0
648 -649 0
212 -649 0
449 -650 0
102 -650 0
650 -651 0
-212 -651 0
649 651 -652 0
439 -653 0
652 -653 0
-133 -653 0
653 -654 0
309 -654 0
654 -655 0
168 -655 0
490 -656 0
491 -656 0
656 -657 0
-168 -657 0
655 657 -658 0
10 -659 0
43 -659 0
95 -659 0
110 -659 0
146 -659 0
244 -659 0
658 -660 0
509 -660 0
523 -660 0
504 -660 0
659 -660 0
541 -660 0
660 -661 0
544 -661 0
661 -662 0
145 -662 0
10 -663 0
146 -663 0
244 -663 0
658 -664 0
504 -664 0
509 -664 0
599 -664 0
663 -664 0
664 -665 0
110 -665 0
439 -666 0
551 -666 0
629 -666 0
630 -666 0
309 -666 0
666 -667 0
-110 -667 0
665 667 -668 0
668 -669 0
635 -669 0
669 -670 0
559 -670 0
670 -671 0
-145 -671 0
662 671 -672 0
105 -673 0
-125 -673 0
152 -673 0
194 -673 0
414 -674 0
264 -674 0
672 -675 0
673 -675 0
674 -675 0
675 -676 0
-147 -676 0
640 676 -677 0
-1 -678 0
-3 -678 0
-8 -678 0
-9 -678 0
12 -678 0
-14 -678 0
16 -678 0
18 -678 0
-21 -678 0
-26 -678 0
-28 -678 0
37 -678 0
-51 -678 0
-52 -678 0
-56 -678 0
-59 -678 0
-65 -678 0
-74 -678 0
-85 -678 0
-107 -678 0
114 -678 0
-122 -678 0
-123 -678 0
129 -678 0
-131 -678 0
-141 -678 0
-149 -678 0
157 -678 0
158 -678 0
-174 -678 0
-178 -678 0
180 -678 0
-198 -678 0
199 -678 0
206 -678 0
-207 -678 0
-208 -678 0
-211 -678 0
216 -678 0
225 -678 0
-236 -678 0
-242 -678 0
679 -681 0
338 -681 0
680 -681 0
335 -681 0
415 -681 0
677 -682 0
678 -682 0
681 -682 0
682 -683 0
-77 -683 0
434 683 -684 0
684 -686 0
685 -686 0
686 -687 0
433 687 -688 0
688 -689 0
127 -689 0
251 -690 0
689 690 -691 0
691 -692 0
251 -693 0
692 693 -694 0
694 -695 0
251 -696 0
695 696 -697 0
697 -698 0
42 -698 0
251 -699 0
698 699 -700 0
700 -701 0
-29 -701 0
701 -702 0
113 -702 0
251 -703 0
702 703 -704 0
-182 -705 0
202 -705 0
704 -706 0
705 -706 0
706 -707 0
-210 -707 0
708 -709 0
251 -710 0
-223 -713 0
714 -715 0
-4 0
-5 0
-11 0
-13 0
-15 0
17 0
19 0
20 0
-23 0
24 0
-25 0
-30 0
-31 0
33 0
35 0
38 0
-39 0
-41 0
-44 0
49 0
50 0
-54 0
57 0
-61 0
62 0
-66 0
-67 0
-70 0
-75 0
-76 0
79 0
82 0
-84 0
88 0
89 0
-92 0
-94 0
96 0
-97 0
-99 0
100 0
-101 0
-104 0
-106 0
-111 0
112 0
116 0
-118 0
-119 0
120 0
-121 0
-126 0
134 0
-136 0
138 0
139 0
-142 0
-143 0
144 0
-148 0
150 0
151 0
153 0
154 0
160 0
-162 0
-165 0
-169 0
170 0
171 0
172 0
175 0
-183 0
-184 0
186 0
-188 0
-193 0
-196 0
201 0
-205 0
209 0
-213 0
-214 0
217 0
218 0
220 0
-221 0
-222 0
227 0
228 0
231 0
232 0
234 0
-237 0
239 0
241 0
246 0
247 0
-715 716 0
179 715 0
-712 713 0
-711 712 0
-709 711 0
-708 709 0
-705 706 0
-202 705 0
182 705 0
-704 706 0
29 701 0
-700 701 0
-695 697 0
-694 695 0
-691 692 0
-688 689 0
-687 688 0
-686 687 0
-684 686 0
-680 681 0
-678 682 0
242 678 0
-206 678 0
-199 678 0
198 678 0
-180 678 0
178 678 0
174 678 0
-158 678 0
123 678 0
21 678 0
14 678 0
9 678 0
-677 682 0
-676 677 0
-675 676 0
124 680 0
-674 675 0
-673 675 0
-672 675 0
-670 671 0
-669 670 0
-668 669 0
-667 668 0
-666 667 0
-665 668 0
-662 672 0
-661 662 0
-659 660 0
-652 653 0
-651 652 0
-650 651 0
-647 648 0
-129 678 0
-645 648 0
-644 645 0
-643 644 0
-641 642 0
-639 640 0
-219 639 0
-638 639 0
-636 637 0
-631 632 0
-629 631 666 0
-628 629 0
-627 628 0
-625 627 0
-622 625 0
-620 621 0
-619 620 0
-618 619 0
-617 618 0
-614 615 0
-611 612 0
-608 609 0
-607 608 0
-606 607 0
-599 600 602 664 0
-598 599 0
-597 598 606 0
-595 596 0
-594 597 0
-591 612 0
-590 591 0
-589 590 0
-586 587 0
-584 585 0
-582 583 0
-702 704 0
-580 582 0
-701 702 0
-579 580 0
-577 578 0
-576 577 0
-574 575 0
-698 700 0
-573 580 0
-569 571 0
-568 569 0
-567 568 574 0
-566 585 0
-564 565 0
-563 564 589 631 0
-562 563 0
-561 562 0
-560 561 0
-558 563 0
-556 557 0
-554 555 0
-553 556 0
-640 677 0
-552 553 0
-550 551 0
-549 551 0
-548 549 0
-546 638 0
-545 546 0
-543 545 0
-542 543 0
-541 542 595 660 0
243 541 0
-110 540 613 659 665 0
-539 543 0
-538 539 0
-536 537 609 0
-657 658 0
-534 535 0
-655 658 0
-532 535 0
-531 532 0
-530 531 622 0
-654 655 0
-529 531 602 0
-528 529 0
-527 529 0
-526 527 0
-525 539 0
-521 522 0
-520 521 533 623 0
-519 523 0
-249 519 532 593 622 0
-518 524 600 0
-517 518 0
-515 518 0
-514 515 0
-512 514 0
-540 543 0
-533 534 0
194 510 513 516 536 0
-509 524 600 619 660 664 0
-508 509 0
176 508 536 626 0
107 678 0
-507 509 0
-506 507 0
-505 506 0
-503 504 0
-500 504 0
-498 499 0
-492 493 0
-489 490 0
-487 488 0
-486 490 0
-484 485 0
-483 484 0
248 483 0
-585 586 0
-481 482 0
-524 525 0
-133 480 0
-478 479 0
-476 477 0
-565 566 0
-475 476 0
-473 474 565 0
-471 474 492 0
-216 678 0
-572 573 0
-470 471 0
-145 546 662 0
-469 470 0
-468 469 561 570 0
-466 467 0
-463 464 0
-461 462 0
-460 461 0
-457 460 0
-452 463 0
-451 452 0
-446 447 0
-445 446 0
6 445 455 584 643 0
-16 678 0
-444 450 0
-443 444 0
-663 664 0
-442 444 0
-441 442 0
-440 441 461 466 552 568 0
-105 440 443 468 554 578 673 0
-439 477 586 631 653 666 0
-689 691 0
81 341 0
-378 380 0
-159 331 0
-587 588 0
-26 276 281 0
-146 331 412 525 601 621 659 663 0
-347 348 0
145 331 412 637 671 0
-260 261 0
137 331 0
-656 657 0
-578 579 0
-634 636 0
212 331 395 550 651 0
-344 345 0
-212 395 398 472 491 549 649 0
3 678 0
-330 343 0
-211 331 392 398 0
208 320 388 678 0
-323 324 437 488 0
-204 288 412 495 498 502 528 604 630 0
-421 422 0
-102 331 465 547 550 581 643 650 0
-286 287 0
-544 545 661 0
181 315 0
-87 331 0
86 331 0
-179 252 0
-83 331 0
-328 329 0
-570 571 0
-462 463 0
133 331 412 477 480 483 586 630 653 0
-437 438 0
77 357 683 0
-400 401 0
-428 429 0
-47 331 0
-403 404 0
-706 707 0
-658 660 664 0
-535 537 0
-34 331 0
65 678 0
-682 683 0
-557 558 0
-413 416 0
197 412 503 528 605 630 0
80 412 0
-6 331 412 445 448 453 458 472 491 566 630 642 646 0
32 412 0
-642 644 0
130 331 0
-290 292 0
-283 284 0
-474 475 0
-284 285 0
-10 331 412 512 614 659 663 0
236 410 678 0
-7 331 519 520 530 592 594 0
-511 512 0
48 331 0
-496 497 0
-479 494 0
-406 407 0
-257 258 0
-624 625 0
-329 330 0
-497 499 0
-22 331 0
-392 394 0
-235 331 0
140 331 0
-282 283 0
-448 449 0
-334 342 0
-356 358 0
-56 299 300 0
85 678 0
-281 282 0
157 286 412 0
-279 280 0
-12 678 0
-147 640 0
-278 284 0
-285 287 0
-685 686 0
-571 572 0
-28 278 294 412 0
195 309 313 412 491 0
-499 500 0
-310 311 403 408 0
-103 258 0
-402 405 0
-274 275 0
-277 278 0
152 274 291 462 567 0
-268 269 0
-296 297 0
-596 597 0
-646 647 0
-256 257 0
-648 649 0
190 334 0
78 369 712 0
59 268 678 0
-114 678 0
-343 344 0
-259 260 0
-122 312 412 0
-267 269 279 289 301 324 387 391 403 441 446 454 481 496 506 511 521 526 548 552 568 574 595 615 623 641 0
-575 577 0
-485 486 0
-583 584 0
-295 296 0
-450 451 0
-336 342 0
244 331 517 536 617 626 0
-491 492 589 656 0
-293 296 0
-266 275 0
-692 694 0
27 331 0
-280 282 0
-90 412 0
163 415 0
-516 517 0
-63 299 0
240 281 498 501 607 0
-152 266 290 412 452 468 567 576 673 0
-95 331 412 540 553 559 573 659 0
-73 331 0
40 331 412 448 459 473 630 647 0
-300 301 305 314 416 0
-113 253 382 702 0
-612 613 0
46 331 0
-319 321 0
-273 274 0
-316 317 0
-164 331 0
71 412 0
-320 321 324 0
211 393 678 0
-269 270 0
-272 273 0
28 283 294 678 0
-2 337 0
-324 325 0
-240 277 280 293 412 497 501 530 603 0
204 297 495 0
-258 262 0
-127 254 689 0
-276 277 279 295 0
-681 682 0
-52 256 260 0
-297 298 0
192 331 0
108 335 406 0
-128 270 0
-602 603 0
-435 436 0
-194 331 412 510 673 0
-311 312 0
-436 439 0
10 513 516 536 614 617 626 0
-264 265 289 416 451 454 469 560 583 674 0
-271 272 0
-416 417 0
-304 307 0
-197 331 500 527 605 0
-208 320 326 385 0
-262 343 0
-265 266 0
-623 624 0
173 412 0
-91 264 273 291 453 458 0
-513 514 0
-447 449 0
69 331 0
-195 309 0
102 412 475 491 547 0
-43 540 659 0
-168 331 479 588 630 655 0
-287 288 0
-522 523 0
-331 343 0
-653 654 0
-288 298 0
-394 396 0
-480 481 487 0
-289 290 0
-303 304 0
-74 310 402 0
166 327 0
-131 257 259 0
43 331 412 635 0
-305 306 0
91 264 0
-291 292 0
-292 296 466 557 0
26 276 412 678 0
-306 307 0
45 323 326 0
-294 295 0
-449 450 650 0
-335 342 409 681 0
-671 672 0
95 555 559 579 0
-298 343 0
-299 303 0
-350 351 0
56 300 678 0
-467 471 0
-412 417 0
-302 303 0
36 679 0
-189 304 0
161 412 544 635 0
-308 311 0
-155 322 436 486 0
-495 496 526 0
-307 308 0
-261 262 0
-609 610 0
105 331 412 440 0
-312 318 0
-51 336 402 0
-313 314 0
-362 364 0
156 331 0
-45 319 323 412 435 485 0
-605 606 0
-314 316 0
-679 681 0
-363 364 0
122 317 678 0
-215 331 0
-601 611 0
-317 318 0
-610 611 0
-318 343 0
-301 302 0
-501 502 620 623 0
-315 316 0
7 412 520 596 0
-270 272 0
-263 265 0
-414 416 542 552 554 560 572 578 674 0
-125 331 442 461 467 558 569 575 0
-616 618 0
-325 328 0
-326 327 0
-327 328 0
-176 331 412 507 0
-472 474 0
93 363 0
-191 331 0
-398 399 0
-200 331 414 0
-600 601 0
-411 417 0
-551 564 631 666 0
203 331 0
-559 560 670 0
-633 634 0
-353 355 0
-482 484 0
-455 456 0
-187 331 0
-339 342 0
-225 331 390 393 678 0
-229 331 0
230 331 0
-236 331 407 0
-368 370 0
-626 627 0
-322 330 0
-243 331 412 541 592 594 630 0
-430 431 0
1 678 0
-177 331 0
-348 350 0
249 331 412 522 534 598 604 624 0
-149 332 0
149 332 678 0
-18 678 0
-332 342 416 0
-592 593 0
-226 333 0
-396 397 0
-333 342 0
185 400 0
-108 335 0
-664 665 0
-365 367 0
-417 418 0
-422 424 0
-454 455 0
125 412 443 470 562 570 576 673 0
-337 342 0
-60 338 0
60 338 0
-453 456 0
68 339 0
-161 359 544 0
245 340 0
-456 457 0
-340 342 0
-458 459 0
-341 342 0
-488 489 0
-342 343 0
115 412 505 0
-345 347 0
-547 548 641 646 0
-637 638 0
-346 347 0
-72 348 0
-409 410 0
-502 503 0
-361 362 0
-632 633 0
-351 353 0
233 352 0
-613 634 0
-621 629 0
-55 354 0
-490 492 589 656 0
-354 355 0
-355 356 0
-683 684 0
-370 372 0
-358 360 0
-459 460 0
-64 359 0
-630 631 666 0
-321 322 0
-238 331 0
-359 360 0
-360 361 0
109 363 0
-364 365 0
-132 365 384 433 0
-523 524 619 660 0
-367 368 0
-78 368 0
8 678 0
53 371 426 696 0
-40 447 457 473 491 581 645 0
-374 375 0
135 371 423 693 0
-391 392 0
-660 661 0
-537 538 0
-371 372 0
200 414 0
-372 373 0
-373 374 0
117 412 0
-375 377 0
-581 582 0
210 376 707 0
-555 556 0
-377 378 0
-224 378 709 0
224 379 710 0
-380 381 0
74 310 313 678 0
-42 383 698 0
-635 636 669 0
37 385 386 0
-464 465 0
-385 389 0
146 538 610 628 0
-386 387 0
-387 388 0
-388 389 0
-389 417 0
225 390 0
-390 391 399 0
-477 478 0
-393 394 0
-588 591 0
-395 396 464 582 0
-397 401 0
-399 400 0
155 329 412 438 489 0
-401 417 0
-404 405 0
-405 406 0
-493 494 0
-407 411 0
98 412 0
-408 409 0
-494 543 0
-410 411 0
-275 285 0
-615 616 0
-58 412 0
-697 698 0
-465 476 0
-510 511 632 0
-593 599 0
168 412 493 590 657 0
-504 524 533 600 660 664 0
-429 430 0
-424 425 0
-244 412 515 616 659 663 0
250 412 0
207 678 0
-415 416 681 0
-604 606 0
-309 311 478 587 631 654 666 0
-163 363 415 0
-418 419 0
-603 608 0
-419 421 0
-649 652 0
-425 427 0
167 344 0
-427 428 0
110 331 412 633 667 0
-431 432 0
-420 421 0
-438 439 0
